% demand
num_movements = 31;
loading_factor = [1450, 800, 1700, 1500, 950, 850, 1650, 1750, 1800, 1950, 1900, 800, 2000, 1900, 1850, 1650, 900, 1000, 1250, 2000, 950, 1850, 800, 1500, 1250, 1900, 1700, 1950, 2000, 1400, 800];
pickup_time = [0, 2, 2, 2, 2, 2, 2, 2, 2, 3, 4, 4, 4, 4, 5, 7, 8, 8, 8, 8, 8, 9, 9, 9, 12, 12, 12, 12, 12, 12, 12];
delivery_time = [1, 3, 5, 3, 3, 3, 3, 3, 3, 7, 8, 8, 8, 8, 7, 8, 12, 12, 11, 11, 12, 12, 12, 11, 13, 13, 13, 13, 13, 13, 13];

% transporter definition
total_capacity = 11000;
num_decks = 4;
capacity = [3000, 3000, 1000, 4000];

% ways out of decks
num_ways_out = 2;
paths_out = array3d(decks, ways_out, decks, [
% ways out of deck d1
2, 4, 0, 0, 3, 4, 0, 0, 

% ways out of deck d2
4, 0, 0, 0, 0, 0, 0, 0,	

% ways out of deck d3
4, 0, 0, 0, 0, 0, 0, 0,	

% ways out of deck d4
0, 0, 0, 0,	0, 0, 0, 0,	

]);

